25
2 1 284
3 1 300
3 2 644
4 1 26
4 2 674
4 3 733
5 1 148
5 2 936
5 3 743
5 4 490
6 1 491
6 2 216
6 3 102
6 4 49
6 5 284
7 1 695
7 2 870
7 3 538
7 4 718
7 5 385
7 6 77
8 1 478
8 2 348
8 3 74
8 4 945
8 5 846
8 6 265
8 7 255
9 1 619
9 2 68
9 3 337
9 4 163
9 5 160
9 6 840
9 7 469
9 8 903
10 1 860
10 2 885
10 3 60
10 4 938
10 5 214
10 6 44
10 7 120
10 8 437
10 9 91
11 1 318
11 2 712
11 3 231
11 4 943
11 5 743
11 6 681
11 7 391
11 8 101
11 9 231
11 10 856
12 1 674
12 2 483
12 3 748
12 4 157
12 5 342
12 6 286
12 7 468
12 8 314
12 9 115
12 10 463
12 11 766
13 1 130
13 2 251
13 3 63
13 4 202
13 5 474
13 6 11
13 7 747
13 8 851
13 9 461
13 10 24
13 11 48
13 12 627
14 1 497
14 2 283
14 3 193
14 4 467
14 5 138
14 6 800
14 7 538
14 8 509
14 9 946
14 10 157
14 11 965
14 12 646
14 13 796
15 1 461
15 2 765
15 3 74
15 4 314
15 5 466
15 6 868
15 7 735
15 8 392
15 9 856
15 10 442
15 11 749
15 12 972
15 13 936
15 14 221
16 1 253
16 2 539
16 3 262
16 4 90
16 5 247
16 6 17
16 7 931
16 8 770
16 9 338
16 10 5
16 11 558
16 12 657
16 13 508
16 14 544
16 15 184
17 1 130
17 2 291
17 3 868
17 4 621
17 5 910
17 6 976
17 7 811
17 8 991
17 9 262
17 10 724
17 11 831
17 12 453
17 13 128
17 14 731
17 15 828
17 16 385
18 1 493
18 2 799
18 3 202
18 4 519
18 5 565
18 6 968
18 7 850
18 8 777
18 9 563
18 10 67
18 11 27
18 12 821
18 13 209
18 14 323
18 15 282
18 16 570
18 17 209
19 1 409
19 2 891
19 3 180
19 4 319
19 5 546
19 6 493
19 7 251
19 8 787
19 9 564
19 10 869
19 11 255
19 12 254
19 13 19
19 14 41
19 15 450
19 16 427
19 17 770
19 18 151
20 1 774
20 2 80
20 3 631
20 4 804
20 5 475
20 6 222
20 7 985
20 8 812
20 9 491
20 10 467
20 11 486
20 12 533
20 13 816
20 14 956
20 15 222
20 16 255
20 17 371
20 18 369
20 19 977
21 1 300
21 2 127
21 3 863
21 4 469
21 5 805
21 6 486
21 7 991
21 8 688
21 9 365
21 10 175
21 11 923
21 12 716
21 13 971
21 14 147
21 15 538
21 16 659
21 17 954
21 18 266
21 19 195
21 20 572
22 1 857
22 2 748
22 3 255
22 4 493
22 5 441
22 6 642
22 7 679
22 8 987
22 9 249
22 10 837
22 11 244
22 12 807
22 13 446
22 14 351
22 15 223
22 16 566
22 17 846
22 18 912
22 19 572
22 20 539
22 21 341
23 1 86
23 2 955
23 3 981
23 4 162
23 5 437
23 6 164
23 7 591
23 8 665
23 9 505
23 10 757
23 11 986
23 12 585
23 13 576
23 14 978
23 15 337
23 16 950
23 17 515
23 18 272
23 19 523
23 20 94
23 21 161
23 22 968
24 1 457
24 2 459
24 3 34
24 4 943
24 5 429
24 6 137
24 7 371
24 8 330
24 9 637
24 10 329
24 11 724
24 12 595
24 13 242
24 14 174
24 15 644
24 16 537
24 17 610
24 18 633
24 19 194
24 20 44
24 21 600
24 22 373
24 23 299
